!PAL8 B3LYP DEF2-SVPD

* XYZFILE 0 1 NEB_product.xyz
