!PAL8 NEB-TS XTB2 FREQ

%NEB
    PREOPT_ENDS TRUE
    NEB_TS_XYZFILE "TS.xyz"
    NEB_END_XYZFILE "P.xyz"
END

%GEOM MAXITER 500 END

* XYZFILE 0 1 R.xyz
