!PAL8 B3LYP D3BJ DEF2-SVP DEF2/J FREQ

* XYZFILE 0 1 P.xyz
