!PAL8 OPT XTB2 HIRSHFELD

* XYZFILE 0 1 P.xyz
