!PAL8 B3LYP D3BJ DEF2-SVP DEF2/J NUMFREQ

* XYZFILE 0 1 NEB_product.xyz
