!PAL8 B3LYP D3BJ def2-SVP FREQ

* XYZFILE 0 1 TS.xyz
