!PAL8 XTB2 FREQ

* XYZFILE 0 1 xtbopt.xyz

