!PAL8 B3LYP D3BJ DEF2-SVP DEF2/J NUMFREQ Hirshfeld

%Method
  WriteJSONPropertyfile True
End

* XYZFILE 0 1 NEB_reactant.xyz
