!PAL8 XTB2 OPT NUMFREQ

%Method
  WriteJSONPropertyfile True
End

* XYZFILE 0 1 A2S.xyz

