!PAL16 B3LYP DEF2-SVPD

* XYZFILE 0 1 NEB.xyz
