!PAL8 XTB2 NEB-TS NUMFREQ

%NEB
    NEB_END_XYZFILE "A3R.xyz"
END

* XYZFILE 0 1 A2R.xyz
