!PAL8 XTB2 NEB-TS NUMFREQ

%NEB
    NEB_END_XYZFILE "A3S.xyz"
END

* XYZFILE 0 1 A2S.xyz
